p cnf 73 187
e 1 0
a 2 0
e 3 13 14 0
a 4 0
e 5 6 7 8 9 10 11 12 15 0
e 16 17 18 19 20 21 22 23 24 25 26 27 28 29 30 31 32 33 34 35 36 37 38 39 40 41 42 43 44 45 46 47 48 49 50 51 52 53 54 55 56 57 58 59 60 61 62 63 64 65 66 67 68 69 70 71 72 73 0
1 16 0
-4 16 0
-1 4 -16 0
4 17 0
-1 17 0
-4 1 -17 0
16 -18 0
17 -18 0
-16 -17 18 0
-5 -19 0
7 -19 0
-8 -19 0
5 -7 8 19 0
18 20 0
-19 20 0
-18 19 -20 0
5 21 0
-7 21 0
-5 7 -21 0
7 22 0
-5 22 0
-7 5 -22 0
21 -23 0
22 -23 0
-21 -22 23 0
6 24 0
-8 24 0
-6 8 -24 0
8 25 0
-6 25 0
-8 6 -25 0
24 -26 0
25 -26 0
-24 -25 26 0
23 -27 0
26 -27 0
-23 -26 27 0
-18 28 0
-27 28 0
18 27 -28 0
2 29 0
-4 29 0
-2 4 -29 0
4 30 0
-2 30 0
-4 2 -30 0
29 -31 0
30 -31 0
-29 -30 31 0
31 -32 0
-7 -32 0
-31 7 32 0
9 -33 0
10 -33 0
-9 -10 33 0
32 34 0
-33 34 0
-32 33 -34 0
7 35 0
-9 35 0
-7 9 -35 0
9 36 0
-7 36 0
-9 7 -36 0
35 -37 0
36 -37 0
-35 -36 37 0
8 38 0
-10 38 0
-8 10 -38 0
10 39 0
-8 39 0
-10 8 -39 0
38 -40 0
39 -40 0
-38 -39 40 0
37 -41 0
40 -41 0
-37 -40 41 0
-32 42 0
-41 42 0
32 41 -42 0
3 43 0
-4 43 0
-3 4 -43 0
4 44 0
-3 44 0
-4 3 -44 0
43 -45 0
44 -45 0
-43 -44 45 0
-9 -46 0
11 -46 0
-12 -46 0
9 -11 12 46 0
45 47 0
-46 47 0
-45 46 -47 0
9 48 0
-11 48 0
-9 11 -48 0
11 49 0
-9 49 0
-11 9 -49 0
48 -50 0
49 -50 0
-48 -49 50 0
10 51 0
-12 51 0
-10 12 -51 0
12 52 0
-10 52 0
-12 10 -52 0
51 -53 0
52 -53 0
-51 -52 53 0
50 -54 0
53 -54 0
-50 -53 54 0
-45 55 0
-54 55 0
45 54 -55 0
20 -56 0
28 -56 0
34 -56 0
42 -56 0
47 -56 0
55 -56 0
-20 -28 -34 -42 -47 -55 56 0
-4 57 0
-15 57 0
4 15 -57 0
4 58 0
-15 58 0
-4 15 -58 0
13 59 0
-4 59 0
-13 4 -59 0
4 60 0
-13 60 0
-4 13 -60 0
59 -61 0
60 -61 0
-59 -60 61 0
14 62 0
-15 62 0
-14 15 -62 0
15 63 0
-14 63 0
-15 14 -63 0
62 -64 0
63 -64 0
-62 -63 64 0
61 65 0
-64 65 0
-61 64 -65 0
11 -66 0
-12 -66 0
-11 12 66 0
61 67 0
-66 67 0
-61 66 -67 0
14 68 0
-4 68 0
-14 4 -68 0
4 69 0
-14 69 0
-4 14 -69 0
68 -70 0
69 -70 0
-68 -69 70 0
70 71 0
-66 71 0
-70 66 -71 0
57 -72 0
58 -72 0
65 -72 0
67 -72 0
71 -72 0
-13 -72 0
14 -72 0
-57 -58 -65 -67 -71 13 -14 72 0
-5 -73 0
56 -73 0
72 -73 0
5 -56 -72 73 0
73 0

